p cnf 2398 2280
c ind 1061 1062 1063 1064 1065 1066 1067 1068 1069 1070 0
c ind 1071 1072 1073 1074 1075 1076 1077 1078 1079 1080 0
c ind 1081 1082 1083 1084 1085 1086 1087 756 762 1088 0
c ind 763 1089 764 1090 765 1091 766 767 768 769 0
c ind 770 1092 771 772 773 774 775 776 777 1093 0
c ind 778 1094 779 780 1095 781 782 1096 783 784 0
c ind 1097 785 786 787 1098 788 789 1099 790 791 0
c ind 792 1100 1101 793 794 795 796 797 798 757 0
c ind 799 800 801 802 1102 803 1103 804 805 1104 0
c ind 1105 806 807 808 1106 809 810 811 812 813 0
c ind 1107 814 815 1108 816 817 1109 818 1110 819 0
c ind 820 821 822 823 824 1111 1112 825 826 827 0
c ind 828 1113 829 830 831 832 833 834 835 836 0
c ind 1114 837 838 839 758 840 1115 841 1116 842 0
c ind 843 1117 844 1118 845 846 847 848 849 850 0
c ind 851 852 853 854 855 856 857 858 859 860 0
c ind 861 862 863 864 865 866 867 868 869 870 0
c ind 871 872 873 874 875 876 877 878 879 759 0
c ind 880 881 882 883 884 885 886 887 888 889 0
c ind 890 891 892 893 894 895 896 897 898 899 0
c ind 900 901 902 903 904 905 906 907 908 909 0
c ind 910 911 912 913 914 915 916 917 918 919 0
c ind 920 921 922 923 924 925 926 927 928 929 0
c ind 930 931 932 933 934 935 936 937 938 939 0
c ind 940 941 942 943 944 945 946 947 948 949 0
c ind 950 760 951 952 953 954 955 956 957 958 0
c ind 959 960 961 962 963 964 965 966 967 968 0
c ind 969 970 971 972 973 974 975 976 977 978 0
c ind 979 980 981 982 983 984 985 986 987 988 0
c ind 989 761 990 991 992 993 994 995 996 997 0
c ind 998 999 1000 1001 1002 1003 1004 1005 1006 1007 0
c ind 1008 1009 1010 1011 1012 1013 1014 1015 1016 1017 0
c ind 1018 1019 1020 1021 1022 1023 1024 1025 1026 1027 0
c ind 1028 1029 1030 1031 1032 1033 1034 1035 1036 1037 0
c ind 1038 1039 1040 1041 1042 1043 1044 1045 1046 1047 0
c ind 1048 1049 1050 1051 1052 1053 1054 1055 1056 1057 0
c ind 1058 1059 1060 0
614 -615 658 0
614 -615 640 0
-614 615 0
-640 -658 -614 0
615 -616 -630 -639 0
-615 616 0
-615 630 0
-615 639 0
616 617 -621 0
-616 -617 0
-616 621 0
-618 -788 617 0
-620 -788 617 0
-619 -788 617 0
-617 788 0
-617 618 619 620 0
618 -794 795 796 0
-618 794 0
-618 -796 0
-618 -795 0
619 794 797 798 0
-619 -794 0
-619 -798 0
-619 -797 0
620 -789 790 791 0
-620 789 0
-620 -791 0
-620 -790 0
621 622 626 -814 -842 0
-621 842 0
-621 -626 0
-621 814 0
-621 -622 0
623 815 622 816 817 0
-622 -623 0
-622 -817 0
-622 -815 0
-622 -816 0
623 624 -820 0
623 624 625 -821 0
-623 -624 0
-623 -625 820 0
-623 820 821 0
624 818 -819 0
-624 -818 0
-624 819 0
625 826 827 0
625 826 834 835 0
-625 -826 0
-625 -827 -834 0
-625 -827 -835 0
627 843 626 844 845 0
-626 -627 0
-626 -845 0
-626 -843 0
-626 -844 0
627 628 -848 0
627 628 629 -849 0
-627 -628 0
-627 -629 848 0
-627 848 849 0
628 846 -847 0
-628 -846 0
-628 847 0
629 854 855 0
629 854 862 863 0
-629 -854 0
-629 -855 -862 0
-629 -855 -863 0
630 -633 959 0
630 -633 952 0
630 631 -633 0
-630 633 0
-631 -952 -630 -959 0
631 -632 -960 961 0
-631 960 0
-631 -961 0
-631 632 0
632 963 -964 -965 966 0
-632 -963 0
-632 -966 0
-632 965 0
-632 964 0
633 634 -637 638 0
633 634 -637 756 0
-633 637 0
-633 -634 0
-638 -756 -633 0
-635 -636 634 -941 0
-635 -636 634 -942 0
-634 636 0
-634 635 0
-634 941 942 0
635 944 945 946 947 0
-635 -947 0
-635 -946 0
-635 -944 0
-635 -945 0
636 -938 -939 -940 943 0
-636 940 0
-636 -943 0
-636 938 0
-636 939 0
637 -988 -1017 -1046 0
-637 988 0
-637 1017 0
-637 1046 0
638 910 911 912 0
-638 -910 0
-638 -912 0
-638 -911 0
639 -759 -760 0
639 -758 761 0
639 -758 -760 0
639 -759 761 0
760 -761 -639 0
758 759 -639 0
640 -641 -1419 0
640 641 1419 0
-640 -641 1419 0
-640 641 -1419 0
641 -642 -637 0
641 656 -637 0
637 -641 0
-641 642 -656 0
642 -643 -655 -1118 0
642 643 -644 -655 0
-642 655 0
-642 -643 1118 0
-642 643 644 0
643 983 -985 0
-643 -983 0
-643 985 0
644 -645 -1117 0
644 645 -646 0
-644 -645 1117 0
-644 645 646 0
645 955 -957 0
-645 -955 0
-645 957 0
646 647 634 654 0
646 647 634 -651 0
-634 -646 0
-646 -647 0
-646 651 -654 0
647 649 756 -931 0
647 648 756 931 0
-647 -756 0
-647 -649 -931 0
-647 -648 931 0
648 -1114 -616 0
-648 1114 0
616 -648 0
649 -650 -1115 0
-648 649 650 0
-649 -650 1115 0
648 -649 650 0
650 897 -899 0
-650 -897 0
-650 899 0
-649 651 -652 0
649 -651 0
-651 652 0
652 653 -910 0
652 653 -911 0
652 653 -912 0
-652 -653 0
-652 910 911 912 0
653 918 -920 0
-653 -918 0
-653 920 0
653 654 -756 0
654 -756 1116 0
-654 756 0
-653 -654 -1116 0
655 -952 959 0
-655 952 0
-655 -959 0
656 657 -952 0
644 646 656 0
646 656 657 0
644 656 -952 0
-646 -656 952 0
-644 -656 -657 0
631 657 -952 -959 0
-657 952 0
-657 959 0
-631 -657 0
658 -659 -669 -1397 0
658 659 -669 1397 0
-658 669 0
-658 659 -1397 0
-658 -659 1397 0
659 -660 -637 0
659 668 -637 0
637 -659 0
-659 660 -668 0
643 -655 660 -661 0
-643 -655 660 -1096 0
655 -660 0
643 -660 661 0
-643 -660 1096 0
-645 661 -1095 0
645 661 -662 0
-645 -661 1095 0
645 -661 662 0
662 663 634 667 0
662 663 634 -666 0
-634 -662 0
-662 -663 0
-662 666 -667 0
663 665 756 -931 0
663 664 756 931 0
-663 -756 0
-663 -665 -931 0
-663 -664 931 0
664 -1092 -616 0
-664 1092 0
616 -664 0
-650 665 -1093 0
650 -664 665 0
-650 -665 1093 0
650 664 -665 0
-652 -665 666 0
652 -666 0
665 -666 0
653 667 -756 0
667 -756 1094 0
-667 756 0
-653 -667 -1094 0
661 668 -952 0
657 662 668 0
661 662 668 0
657 668 -952 0
-657 -661 -668 0
-662 -668 952 0
669 -670 -704 -726 -1411 0
669 -670 -704 726 1411 0
-669 670 0
-669 -726 1411 0
-669 704 0
-669 726 -1411 0
670 694 -671 -1402 0
670 -680 -671 694 0
-670 671 0
-670 -694 0
-670 680 1402 0
671 -637 -672 0
671 -637 679 0
637 -671 0
672 -679 -671 0
643 -655 672 -673 0
-643 -655 672 -1091 0
655 -672 0
643 -672 673 0
-643 -672 1091 0
-645 673 -1090 0
645 673 -674 0
-645 -673 1090 0
645 -673 674 0
674 675 634 678 0
674 675 634 -677 0
-634 -674 0
-674 -675 0
-674 677 -678 0
675 676 756 -931 0
616 675 756 931 0
-675 -756 0
-675 -676 -931 0
-675 931 -616 0
650 676 -616 0
-650 676 -1088 0
616 650 -676 0
-650 -676 1088 0
-652 -676 677 0
652 -677 0
676 -677 0
653 678 -756 0
678 -756 1089 0
-678 756 0
-653 -678 -1089 0
673 679 -952 0
657 674 679 0
673 674 679 0
657 679 -952 0
-657 -673 -679 0
-674 -679 952 0
680 681 692 1101 0
680 681 691 692 0
-680 -692 0
-680 -681 0
-680 -691 -1101 0
681 682 -685 -687 0
681 682 686 -687 0
-681 -682 0
-681 687 0
-681 685 -686 0
682 684 756 -931 0
682 683 756 931 0
-682 -756 0
-682 -684 -931 0
-682 -683 931 0
683 -1097 -616 0
-683 1097 0
616 -683 0
-650 684 -1098 0
650 -683 684 0
-650 -684 1098 0
650 683 -684 0
-652 -684 685 0
652 -685 0
684 -685 0
653 686 -756 0
686 -756 1099 0
-686 756 0
-653 -686 -1099 0
687 952 634 0
645 687 634 -688 0
-634 -687 0
-687 688 -952 0
-645 -687 -952 0
688 689 690 0
632 688 689 -952 0
-688 -689 0
-688 -690 952 0
-632 -688 -690 0
-643 689 959 0
-689 -959 0
643 -689 0
690 -959 -960 961 0
-690 959 0
-690 960 0
-690 -961 0
-643 -655 691 0
643 -691 0
655 -691 0
-645 692 -693 -1100 0
-692 1100 0
645 -692 0
-692 693 0
-688 693 -952 0
-693 952 0
688 -693 0
694 -695 1124 0
694 695 -1124 0
-694 -695 -1124 0
-694 695 1124 0
695 -696 -637 0
695 703 -637 0
637 -695 0
-695 696 -703 0
643 -655 696 -697 0
-643 -655 696 -1087 0
655 -696 0
643 -696 697 0
-643 -696 1087 0
-645 697 -1086 0
645 697 -698 0
-645 -697 1086 0
645 -697 698 0
698 701 634 0
698 -699 -616 634 0
-634 -698 0
616 -698 -701 0
-698 699 -701 0
699 700 756 -761 0
-652 699 700 -761 0
-699 761 0
-699 -700 0
652 -699 -756 0
-650 700 -931 0
-650 700 -756 0
650 -700 0
-700 756 931 0
701 702 1085 0
653 701 702 0
701 702 756 0
-701 -702 0
-653 -701 -756 -1085 0
-700 702 756 -1084 0
-652 -700 702 -1084 0
700 -702 0
-702 1084 0
652 -702 -756 0
697 703 -952 0
657 698 703 0
697 698 703 0
657 703 -952 0
-657 -697 -703 0
-698 -703 952 0
704 -706 -709 1402 0
704 -705 -706 -709 0
-704 709 0
-704 706 0
-704 705 -1402 0
680 705 -637 0
637 -705 0
-680 -705 0
706 -707 1382 0
706 707 -1382 0
-706 -707 -1382 0
-706 707 1382 0
707 -708 -630 0
630 -707 0
-707 708 0
708 -1075 -621 1077 0
-708 1075 0
-708 -1077 0
621 -708 0
709 -710 -717 0
709 712 -715 -717 0
-709 717 0
710 -712 -709 0
710 715 -709 0
-645 710 -952 0
710 -711 -952 0
-710 952 0
645 -710 711 0
-643 711 959 -1105 0
643 -711 0
-711 1105 0
-711 -959 0
712 714 756 -931 0
712 713 756 931 0
-712 -756 0
-712 -714 -931 0
-712 -713 931 0
713 -760 -616 0
-713 760 0
616 -713 0
-650 714 -1102 0
650 -713 714 0
-650 -714 1102 0
650 713 -714 0
715 716 634 0
-652 -714 634 715 0
-634 -715 0
652 -715 -716 0
714 -715 -716 0
653 716 -756 0
716 -756 1103 0
-716 756 0
-653 -716 -1103 0
717 -718 -720 -724 0
717 718 -721 -724 0
-717 724 0
-718 720 -717 0
718 721 -717 0
718 719 875 0
718 -756 875 0
718 875 -931 0
-718 -875 0
-718 -719 756 931 0
719 932 933 934 935 0
-719 -935 0
-719 -934 0
-719 -932 0
-719 -933 0
720 -1083 -1113 0
708 720 -1113 0
-720 1113 0
-708 -720 1083 0
721 723 -621 -1081 0
721 722 -621 723 0
621 -721 0
-721 -723 0
-721 -722 1081 0
722 -1075 1077 0
-722 1075 0
-722 -1077 0
-617 723 1075 0
723 767 1075 1112 0
-723 -1075 0
-723 -767 617 0
-723 -1112 617 0
724 952 -630 0
-711 724 -630 0
724 -725 -630 0
630 -724 0
711 725 -724 -952 0
-688 725 -1104 0
645 -688 725 0
688 -725 0
-645 -725 1104 0
726 732 -637 0
726 727 -637 -730 0
637 -726 0
-726 -727 -732 0
-726 730 -732 0
727 729 756 -931 0
727 728 756 931 0
-727 -756 0
-727 -729 -931 0
-727 -728 931 0
728 -1106 -616 0
-728 1106 0
616 -728 0
-650 729 -1107 0
650 -728 729 0
-650 -729 1107 0
650 728 -729 0
-687 730 731 0
-652 -687 -729 730 0
687 -730 0
652 -730 -731 0
729 -730 -731 0
653 731 -756 0
731 -756 1108 0
-731 756 0
-653 -731 -1108 0
645 732 733 0
693 732 733 0
732 733 1109 0
-732 -733 0
-645 -693 -732 -1109 0
-643 -655 733 -1110 0
-733 1110 0
643 -733 0
655 -733 0
735 -615 734 0
-659 2065 734 -615 0
659 -2065 734 -615 0
615 -734 0
659 -734 -735 2065 0
-659 -734 -735 -2065 0
641 735 -736 -737 2087 0
-641 735 -736 -737 -2087 0
-735 737 0
641 -2087 -735 0
-735 736 0
-641 2087 -735 0
736 -709 -671 0
671 -736 0
709 -736 0
695 737 -738 -739 1792 0
-695 737 -738 -739 -1792 0
-737 739 0
695 -1792 -737 0
-737 738 0
-695 1792 -737 0
-705 738 -2070 2079 0
705 738 2070 2079 0
705 -726 738 2070 0
-705 -726 738 -2070 0
705 -2070 -738 0
-705 2070 -738 0
726 -2079 -738 0
707 726 739 -2050 0
-707 726 739 2050 0
-707 739 2050 -2079 0
707 739 -2050 -2079 0
-707 -2050 -739 0
707 2050 -739 0
-726 2079 -739 0
-659 740 -615 0
669 740 -615 0
640 740 -615 0
615 -740 0
-640 659 -669 -740 0
-726 741 -615 0
741 742 -615 0
670 741 -615 0
615 -741 0
-670 726 -741 -742 0
-640 -704 742 0
640 -742 0
704 -742 0
-705 743 -615 0
743 744 -615 0
640 743 -615 0
615 -743 0
-640 705 -743 -744 0
694 744 -745 0
-694 -744 0
-744 745 0
-706 745 -736 0
706 -745 0
736 -745 0
-641 746 -615 0
744 746 -615 0
615 -746 0
641 -744 -746 0
-695 747 -615 0
745 747 -615 0
615 -747 0
695 -745 -747 0
736 748 -615 0
707 748 -615 0
615 -748 0
-707 -748 -736 0
736 749 -615 0
615 -749 0
-736 -749 0
669 750 -615 0
640 750 -615 0
659 750 -615 0
615 -750 0
-640 -659 -669 -750 0
742 751 -615 0
670 751 -615 0
726 751 -615 0
615 -751 0
-670 -726 -742 -751 0
744 752 -615 0
640 752 -615 0
705 752 -615 0
615 -752 0
-640 -705 -744 -752 0
744 753 -615 0
641 753 -615 0
615 -753 0
-641 -744 -753 0
745 754 -615 0
695 754 -615 0
615 -754 0
-695 -745 -754 0
-707 755 -615 0
736 755 -615 0
615 -755 0
707 -755 -736 0
1 614 0
-1 -614 0
2 614 0
-2 -614 0
3 734 0
-3 -734 0
89 -740 0
-89 740 0
90 -741 0
-90 741 0
91 -743 0
-91 743 0
92 -746 0
-92 746 0
97 -747 0
-97 747 0
110 -748 0
-110 748 0
210 -749 0
-210 749 0
394 -750 0
-394 750 0
395 -751 0
-395 751 0
396 -752 0
-396 752 0
397 -753 0
-397 753 0
402 -754 0
-402 754 0
415 -755 0
-415 755 0
515 -749 0
-515 749 0
-89 -394 2178 0
89 -2178 0
394 -2178 0
89 -1397 0
-89 1397 0
-90 -395 2179 0
90 -2179 0
395 -2179 0
90 -1411 0
-90 1411 0
-91 -396 2180 0
91 -2180 0
396 -2180 0
91 -1402 0
-91 1402 0
-92 -397 2181 0
92 -2181 0
397 -2181 0
92 -1419 0
-92 1419 0
-97 -402 2186 0
97 -2186 0
402 -2186 0
97 -1124 0
-97 1124 0
-110 -415 2199 0
110 -2199 0
415 -2199 0
110 -1382 0
-110 1382 0
-210 -515 2299 0
210 -2299 0
515 -2299 0
210 -1238 0
-210 1238 0
-1 0
-2 0
3 0
4 0
5 0
6 0
7 0
8 0
9 0
10 0
11 0
12 0
13 0
14 0
15 0
16 0
17 0
18 0
19 0
20 0
21 0
22 0
23 0
24 0
25 0
26 0
27 0
28 0
29 0
30 0
31 0
32 0
33 0
34 0
35 0
36 0
37 0
38 0
39 0
40 0
41 0
42 0
43 0
44 0
45 0
46 0
47 0
48 0
49 0
50 0
51 0
52 0
53 0
54 0
55 0
56 0
57 0
58 0
59 0
60 0
61 0
62 0
63 0
64 0
65 0
66 0
67 0
68 0
69 0
70 0
71 0
72 0
73 0
74 0
75 0
76 0
77 0
78 0
79 0
80 0
81 0
82 0
83 0
84 0
85 0
86 0
87 0
88 0
93 0
94 0
95 0
96 0
98 0
99 0
100 0
101 0
102 0
103 0
104 0
105 0
106 0
107 0
108 0
109 0
111 0
112 0
113 0
114 0
115 0
116 0
117 0
118 0
119 0
120 0
121 0
122 0
123 0
124 0
125 0
126 0
127 0
128 0
129 0
130 0
131 0
132 0
133 0
134 0
135 0
136 0
137 0
138 0
139 0
140 0
141 0
142 0
143 0
144 0
145 0
146 0
147 0
148 0
149 0
150 0
151 0
152 0
153 0
154 0
155 0
156 0
-157 0
158 0
159 0
160 0
161 0
162 0
163 0
164 0
165 0
166 0
167 0
168 0
169 0
170 0
171 0
172 0
173 0
174 0
175 0
176 0
177 0
178 0
179 0
180 0
181 0
182 0
183 0
184 0
185 0
186 0
187 0
188 0
189 0
190 0
191 0
192 0
193 0
194 0
195 0
196 0
197 0
198 0
199 0
200 0
201 0
202 0
203 0
204 0
205 0
206 0
207 0
208 0
209 0
-210 0
211 0
212 0
213 0
214 0
215 0
216 0
217 0
218 0
219 0
-220 0
221 0
222 0
223 0
224 0
225 0
226 0
227 0
228 0
229 0
230 0
231 0
232 0
233 0
234 0
235 0
236 0
237 0
238 0
239 0
240 0
241 0
242 0
243 0
244 0
245 0
246 0
247 0
-248 0
249 0
250 0
251 0
252 0
253 0
254 0
255 0
256 0
257 0
258 0
259 0
260 0
261 0
262 0
263 0
264 0
265 0
266 0
267 0
268 0
269 0
270 0
271 0
272 0
273 0
274 0
275 0
276 0
277 0
278 0
279 0
280 0
281 0
282 0
283 0
284 0
285 0
286 0
287 0
288 0
289 0
290 0
291 0
292 0
293 0
294 0
295 0
296 0
297 0
298 0
299 0
300 0
301 0
302 0
303 0
304 0
305 0
306 0
307 0
308 0
-309 0
-310 0
-311 0
-312 0
-313 0
-314 0
-315 0
-316 0
-317 0
-318 0
-319 0
-320 0
-321 0
-322 0
-323 0
-324 0
-325 0
-326 0
-327 0
-328 0
-329 0
-330 0
-331 0
-332 0
-333 0
-334 0
-335 0
-336 0
-337 0
-338 0
-339 0
-340 0
-341 0
-342 0
-343 0
-344 0
-345 0
-346 0
-347 0
-348 0
-349 0
-350 0
-351 0
-352 0
-353 0
-354 0
-355 0
-356 0
-357 0
-358 0
-359 0
-360 0
-361 0
-362 0
-363 0
-364 0
-365 0
-366 0
-367 0
-368 0
-369 0
-370 0
-371 0
-372 0
-373 0
-374 0
-375 0
-376 0
-377 0
-378 0
-379 0
-380 0
-381 0
-382 0
-383 0
-384 0
-385 0
-386 0
-387 0
-388 0
-389 0
-390 0
-391 0
-392 0
-393 0
-398 0
-399 0
-400 0
-401 0
-403 0
-404 0
-405 0
-406 0
-407 0
-408 0
-409 0
-410 0
-411 0
-412 0
-413 0
-414 0
-416 0
-417 0
-418 0
-419 0
-420 0
-421 0
-422 0
-423 0
-424 0
-425 0
-426 0
-427 0
-428 0
-429 0
-430 0
-431 0
-432 0
-433 0
-434 0
-435 0
-436 0
-437 0
-438 0
-439 0
-440 0
-441 0
-442 0
-443 0
-444 0
-445 0
-446 0
-447 0
-448 0
-449 0
-450 0
-451 0
-452 0
-453 0
-454 0
-455 0
-456 0
-457 0
-458 0
-459 0
-460 0
-461 0
462 0
-463 0
-464 0
-465 0
-466 0
-467 0
-468 0
-469 0
-470 0
-471 0
-472 0
-473 0
-474 0
-475 0
-476 0
-477 0
-478 0
-479 0
-480 0
-481 0
-482 0
-483 0
-484 0
-485 0
-486 0
-487 0
-488 0
-489 0
-490 0
-491 0
-492 0
-493 0
-494 0
-495 0
-496 0
-497 0
-498 0
-499 0
-500 0
-501 0
-502 0
-503 0
-504 0
-505 0
-506 0
-507 0
-508 0
-509 0
-510 0
-511 0
-512 0
-513 0
-514 0
-515 0
-516 0
-517 0
-518 0
-519 0
-520 0
-521 0
-522 0
-523 0
-524 0
525 0
-526 0
-527 0
-528 0
-529 0
-530 0
-531 0
-532 0
-533 0
-534 0
-535 0
-536 0
-537 0
-538 0
-539 0
-540 0
-541 0
-542 0
-543 0
-544 0
-545 0
-546 0
-547 0
-548 0
-549 0
-550 0
-551 0
-552 0
553 0
-554 0
-555 0
-556 0
-557 0
-558 0
-559 0
-560 0
-561 0
-562 0
-563 0
-564 0
-565 0
-566 0
-567 0
-568 0
-569 0
-570 0
-571 0
-572 0
-573 0
-574 0
-575 0
-576 0
-577 0
-578 0
-579 0
-580 0
-581 0
-582 0
-583 0
-584 0
-585 0
-586 0
-587 0
-588 0
-589 0
-590 0
-591 0
-592 0
-593 0
-594 0
-595 0
-596 0
-597 0
-598 0
-599 0
-600 0
-601 0
-602 0
-603 0
-604 0
-605 0
-606 0
-607 0
-608 0
-609 0
-610 0
-611 0
-612 0
-613 0
614 0
615 0
616 0
-617 0
621 0
-622 0
-626 0
630 0
633 0
-634 0
637 0
639 0
671 0
709 0
717 0
724 0
-734 0
735 0
736 0
737 0
738 0
739 0
-749 0
814 0
842 0
988 0
1017 0
1046 0
-1119 0
1120 0
1121 0
1122 0
1123 0
1125 0
1126 0
1127 0
1128 0
1129 0
1130 0
1131 0
1132 0
1133 0
1134 0
1135 0
1136 0
1137 0
1138 0
1139 0
1140 0
1141 0
1142 0
1143 0
1144 0
1145 0
1146 0
1147 0
1148 0
1149 0
1150 0
1151 0
1152 0
1153 0
1154 0
1155 0
1156 0
1157 0
1158 0
1159 0
1160 0
1161 0
1162 0
1163 0
1164 0
1165 0
1166 0
1167 0
1168 0
1169 0
1170 0
1171 0
1172 0
1173 0
1174 0
1175 0
1176 0
1177 0
1178 0
1179 0
1180 0
1181 0
-1182 0
1183 0
1184 0
1185 0
1186 0
1187 0
1188 0
1189 0
1190 0
1191 0
1192 0
1193 0
1194 0
1195 0
1196 0
1197 0
1198 0
1199 0
1200 0
1201 0
1202 0
1203 0
1204 0
1205 0
1206 0
1207 0
1208 0
1209 0
-1210 0
1211 0
1212 0
1213 0
1214 0
1215 0
1216 0
1217 0
1218 0
1219 0
1220 0
1221 0
1222 0
1223 0
1224 0
1225 0
1226 0
1227 0
1228 0
1229 0
1230 0
1231 0
1232 0
1233 0
1234 0
1235 0
1236 0
1237 0
-1238 0
1239 0
1240 0
1241 0
1242 0
1243 0
1244 0
1245 0
1246 0
1247 0
1248 0
1249 0
1250 0
1251 0
1252 0
1253 0
1254 0
1255 0
1256 0
1257 0
1258 0
1259 0
1260 0
1261 0
1262 0
1263 0
1264 0
1265 0
1266 0
1267 0
1268 0
1269 0
1270 0
1271 0
1272 0
1273 0
1274 0
1275 0
1276 0
1277 0
1278 0
1279 0
1280 0
1281 0
1282 0
1283 0
1284 0
1285 0
1286 0
1287 0
1288 0
1289 0
1290 0
1291 0
1292 0
1293 0
1294 0
1295 0
1296 0
1297 0
1298 0
1299 0
1300 0
1301 0
1302 0
1303 0
1304 0
1305 0
1306 0
1307 0
1308 0
1309 0
1310 0
1311 0
1312 0
1313 0
1314 0
1315 0
1316 0
1317 0
1318 0
1319 0
1320 0
1321 0
1322 0
1323 0
1324 0
1325 0
1326 0
1327 0
1328 0
1329 0
1330 0
1331 0
1332 0
1333 0
1334 0
1335 0
1336 0
1337 0
1338 0
1339 0
1340 0
1341 0
1342 0
1343 0
1344 0
1345 0
1346 0
1347 0
1348 0
1349 0
1350 0
1351 0
1352 0
1353 0
1354 0
1355 0
1356 0
1357 0
1358 0
1359 0
1360 0
1361 0
1362 0
1363 0
1364 0
1365 0
1366 0
1367 0
1368 0
1369 0
1370 0
1371 0
1372 0
1373 0
1374 0
1375 0
1376 0
1377 0
1378 0
1379 0
1380 0
1381 0
1383 0
1384 0
1385 0
1386 0
1387 0
1388 0
1389 0
1390 0
1391 0
1392 0
1393 0
1394 0
1395 0
1396 0
1398 0
1399 0
1400 0
1401 0
1403 0
1404 0
1405 0
1406 0
1407 0
1408 0
1409 0
1410 0
1412 0
1413 0
1414 0
1415 0
1416 0
1417 0
1418 0
1420 0
1421 0
1422 0
1423 0
2092 0
-2093 0
-2094 0
-2095 0
-2096 0
-2097 0
-2098 0
-2099 0
-2100 0
-2101 0
-2102 0
-2103 0
-2104 0
-2105 0
-2106 0
-2107 0
-2108 0
-2109 0
-2110 0
-2111 0
-2112 0
-2113 0
-2114 0
-2115 0
-2116 0
-2117 0
-2118 0
-2119 0
-2120 0
-2121 0
-2122 0
-2123 0
-2124 0
-2125 0
-2126 0
-2127 0
-2128 0
-2129 0
-2130 0
-2131 0
-2132 0
-2133 0
-2134 0
-2135 0
-2136 0
-2137 0
-2138 0
-2139 0
-2140 0
-2141 0
-2142 0
-2143 0
-2144 0
-2145 0
-2146 0
-2147 0
-2148 0
-2149 0
-2150 0
-2151 0
-2152 0
-2153 0
-2154 0
-2155 0
-2156 0
-2157 0
-2158 0
-2159 0
-2160 0
-2161 0
-2162 0
-2163 0
-2164 0
-2165 0
-2166 0
-2167 0
-2168 0
-2169 0
-2170 0
-2171 0
-2172 0
-2173 0
-2174 0
-2175 0
-2176 0
-2177 0
-2182 0
-2183 0
-2184 0
-2185 0
-2187 0
-2188 0
-2189 0
-2190 0
-2191 0
-2192 0
-2193 0
-2194 0
-2195 0
-2196 0
-2197 0
-2198 0
-2200 0
-2201 0
-2202 0
-2203 0
-2204 0
-2205 0
-2206 0
-2207 0
-2208 0
-2209 0
-2210 0
-2211 0
-2212 0
-2213 0
-2214 0
-2215 0
-2216 0
-2217 0
-2218 0
-2219 0
-2220 0
-2221 0
-2222 0
-2223 0
-2224 0
-2225 0
-2226 0
-2227 0
-2228 0
-2229 0
-2230 0
-2231 0
-2232 0
-2233 0
-2234 0
-2235 0
-2236 0
-2237 0
-2238 0
-2239 0
-2240 0
-2241 0
-2242 0
-2243 0
-2244 0
-2245 0
-2246 0
-2247 0
-2248 0
-2249 0
-2250 0
-2251 0
-2252 0
-2253 0
-2254 0
-2255 0
-2256 0
-2257 0
-2258 0
-2259 0
-2260 0
-2261 0
-2262 0
-2263 0
-2264 0
-2265 0
-2266 0
-2267 0
-2268 0
-2269 0
-2270 0
-2271 0
-2272 0
-2273 0
-2274 0
-2275 0
-2276 0
-2277 0
-2278 0
-2279 0
-2280 0
-2281 0
-2282 0
-2283 0
-2284 0
-2285 0
-2286 0
-2287 0
-2288 0
-2289 0
-2290 0
-2291 0
-2292 0
-2293 0
-2294 0
-2295 0
-2296 0
-2297 0
-2298 0
-2299 0
-2300 0
-2301 0
-2302 0
-2303 0
-2304 0
-2305 0
-2306 0
-2307 0
-2308 0
-2309 0
-2310 0
-2311 0
-2312 0
-2313 0
-2314 0
-2315 0
-2316 0
-2317 0
-2318 0
-2319 0
-2320 0
-2321 0
-2322 0
-2323 0
-2324 0
-2325 0
-2326 0
-2327 0
-2328 0
-2329 0
-2330 0
-2331 0
-2332 0
-2333 0
-2334 0
-2335 0
-2336 0
-2337 0
-2338 0
-2339 0
-2340 0
-2341 0
-2342 0
-2343 0
-2344 0
-2345 0
-2346 0
-2347 0
-2348 0
-2349 0
-2350 0
-2351 0
-2352 0
-2353 0
-2354 0
-2355 0
-2356 0
-2357 0
-2358 0
-2359 0
-2360 0
-2361 0
-2362 0
-2363 0
-2364 0
-2365 0
-2366 0
-2367 0
-2368 0
-2369 0
-2370 0
-2371 0
-2372 0
-2373 0
-2374 0
-2375 0
-2376 0
-2377 0
-2378 0
-2379 0
-2380 0
-2381 0
-2382 0
-2383 0
-2384 0
-2385 0
-2386 0
-2387 0
-2388 0
-2389 0
-2390 0
-2391 0
-2392 0
-2393 0
-2394 0
-2395 0
-2396 0
-2397 0
-1729 0
-1730 0
-1731 0
-1732 0
-1733 0
-1734 0
-1735 0
-1736 0
-1737 0
-1738 0
-1739 0
-1740 0
-1741 0
-1742 0
-1743 0
-1744 0
-1745 0
-1746 0
-1747 0
-1748 0
-1749 0
-1750 0
-1751 0
-1752 0
-1753 0
-1754 0
-1755 0
-1424 0
-1430 0
-1756 0
-1431 0
-1757 0
-1432 0
-1758 0
-1433 0
-1759 0
-1434 0
-1435 0
-1436 0
-1437 0
-1438 0
-1760 0
-1439 0
-1440 0
-1441 0
-1442 0
-1443 0
-1444 0
-1445 0
-1761 0
-1446 0
-1762 0
-1447 0
-1448 0
-1763 0
-1449 0
-1450 0
-1764 0
-1451 0
-1452 0
-1765 0
-1453 0
-1454 0
-1455 0
-1766 0
-1456 0
-1457 0
-1767 0
-1458 0
-1459 0
-1460 0
-1768 0
-1769 0
-1461 0
-1462 0
-1463 0
-1464 0
-1465 0
-1466 0
-1425 0
-1467 0
-1468 0
-1469 0
-1470 0
-1770 0
-1471 0
-1771 0
-1472 0
-1473 0
-1772 0
-1773 0
-1474 0
-1475 0
-1476 0
-1774 0
-1477 0
-1478 0
-1479 0
-1480 0
-1481 0
-1775 0
-1482 0
-1483 0
-1776 0
-1484 0
-1485 0
-1777 0
-1486 0
-1778 0
-1487 0
-1488 0
-1489 0
-1490 0
-1491 0
-1492 0
-1779 0
-1780 0
-1493 0
-1494 0
-1495 0
-1496 0
-1781 0
-1497 0
-1498 0
-1499 0
-1500 0
-1501 0
-1502 0
-1503 0
-1504 0
-1782 0
-1505 0
-1506 0
-1507 0
-1426 0
-1508 0
-1783 0
-1509 0
-1784 0
-1510 0
-1511 0
-1785 0
-1512 0
-1786 0
-1513 0
-1514 0
-1515 0
-1516 0
-1517 0
-1518 0
-1519 0
-1520 0
-1521 0
-1522 0
-1523 0
-1524 0
-1525 0
-1526 0
-1527 0
-1528 0
-1529 0
-1530 0
-1531 0
-1532 0
-1533 0
-1534 0
-1535 0
-1536 0
-1537 0
-1538 0
-1539 0
-1540 0
-1541 0
-1542 0
-1543 0
-1544 0
-1545 0
-1546 0
-1547 0
-1427 0
-1548 0
-1549 0
-1550 0
-1551 0
-1552 0
-1553 0
-1554 0
-1555 0
-1556 0
-1557 0
-1558 0
-1559 0
-1560 0
-1561 0
-1562 0
-1563 0
-1564 0
-1565 0
-1566 0
-1567 0
-1568 0
-1569 0
-1570 0
-1571 0
-1572 0
-1573 0
-1574 0
-1575 0
-1576 0
-1577 0
-1578 0
-1579 0
-1580 0
-1581 0
-1582 0
-1583 0
-1584 0
-1585 0
-1586 0
-1587 0
-1588 0
-1589 0
-1590 0
-1591 0
-1592 0
-1593 0
-1594 0
-1595 0
-1596 0
-1597 0
-1598 0
-1599 0
-1600 0
-1601 0
-1602 0
-1603 0
-1604 0
-1605 0
-1606 0
-1607 0
-1608 0
-1609 0
-1610 0
-1611 0
-1612 0
-1613 0
-1614 0
-1615 0
-1616 0
-1617 0
-1618 0
-1428 0
-1619 0
-1620 0
-1621 0
-1622 0
-1623 0
-1624 0
-1625 0
-1626 0
-1627 0
-1628 0
-1629 0
-1630 0
-1631 0
-1632 0
-1633 0
-1634 0
-1635 0
-1636 0
-1637 0
-1638 0
-1639 0
-1640 0
-1641 0
-1642 0
-1643 0
-1644 0
-1645 0
-1646 0
-1647 0
-1648 0
-1649 0
-1650 0
-1651 0
-1652 0
-1653 0
-1654 0
-1655 0
-1656 0
-1657 0
-1429 0
-1658 0
-1659 0
-1660 0
-1661 0
-1662 0
-1663 0
-1664 0
-1665 0
-1666 0
-1667 0
-1668 0
-1669 0
-1670 0
-1671 0
-1672 0
-1673 0
-1674 0
-1675 0
-1676 0
-1677 0
-1678 0
-1679 0
-1680 0
-1681 0
-1682 0
-1683 0
-1684 0
-1685 0
-1686 0
-1687 0
-1688 0
-1689 0
-1690 0
-1691 0
-1692 0
-1693 0
-1694 0
-1695 0
-1696 0
-1697 0
-1698 0
-1699 0
-1700 0
-1701 0
-1702 0
-1703 0
-1704 0
-1705 0
-1706 0
-1707 0
-1708 0
-1709 0
-1710 0
-1711 0
-1712 0
-1713 0
-1714 0
-1715 0
-1716 0
-1717 0
-1718 0
-1719 0
-1720 0
-1721 0
-1722 0
-1723 0
-1724 0
-1725 0
-1726 0
-1727 0
-1728 0

